c turning on binary mode checking
c parsing input formula with 259840 variables and 1039929 clauses
c finished parsing, read 24153769 bytes from proof file
c detected empty clause; start verification via backward checking
c 25146 of 1039929 clauses in core                            
c 32759 of 613374 lemmas in core using 251808 resolution steps
c 0 RAT lemmas in core; 2240 redundant literals in core lemmas
s VERIFIED
c verification time: 3.415 seconds
